
Log started (V12.10.0.0) Fri Apr  9 07:25:13 2021


Problem 'asset.lp' read.
Read time = 0.01 sec. (0.18 ticks)
New value for default parallel thread count: 1
New value for time limit in seconds: 150
Version identifier: 12.10.0.0 | 2019-11-26 | 843d4de
CPXPARAM_Threads                                 1
CPXPARAM_TimeLimit                               150
Found incumbent of value 0.000000 after 0.00 sec. (0.05 ticks)
Tried aggregator 3 times.
MIP Presolve eliminated 589 rows and 265 columns.
MIP Presolve modified 1300 coefficients.
Aggregator did 548 substitutions.
Reduced MIP has 546 rows, 741 columns, and 3009 nonzeros.
Reduced MIP has 669 binaries, 45 generals, 0 SOSs, and 0 indicators.
Presolve time = 0.01 sec. (6.97 ticks)
Probing fixed 5 vars, tightened 0 bounds.
Probing time = 0.00 sec. (2.50 ticks)
Cover probing fixed 0 vars, tightened 3 bounds.
Tried aggregator 1 time.
Detecting symmetries...
MIP Presolve eliminated 10 rows and 10 columns.
MIP Presolve modified 110 coefficients.
Reduced MIP has 536 rows, 731 columns, and 2872 nonzeros.
Reduced MIP has 659 binaries, 45 generals, 0 SOSs, and 0 indicators.
Presolve time = 0.00 sec. (2.90 ticks)
Probing time = 0.00 sec. (2.32 ticks)
Clique table members: 1908.
MIP emphasis: balance optimality and feasibility.
MIP search method: dynamic search.
Parallel mode: none, using 1 thread.
Root relaxation solution time = 0.01 sec. (6.42 ticks)

        Nodes                                         Cuts/
   Node  Left     Objective  IInf  Best Integer    Best Bound    ItCnt     Gap

*     0+    0                            0.0000      166.0000              --- 
      0     0      163.0000   153        0.0000      163.0000      317     --- 
      0     0      162.0000   153        0.0000     Cuts: 153      547     --- 
      0     0      162.0000   153        0.0000     Cuts: 234      847     --- 
      0     0      161.9666   153        0.0000      Cuts: 58     1146     --- 
      0     0      161.6478   153        0.0000     Cuts: 234     1471     --- 
      0     0      161.5353   153        0.0000     Cuts: 234     1720     --- 
      0     0      161.4772   153        0.0000     Cuts: 157     1982     --- 
      0     0      161.4531   153        0.0000     Cuts: 203     2307     --- 
*     0+    0                            8.0000      161.4531              --- 
      0     0        cutoff              8.0000      161.4531     2307     --- 
      0     0      161.3704   153        8.0000     Cuts: 119     2529     --- 
      0     0      161.2999   153        8.0000     Cuts: 167     2912     --- 
      0     0      161.0443   153        8.0000     Cuts: 215     3311     --- 
      0     0      160.8801   153        8.0000     Cuts: 181     3526     --- 
      0     0      160.7921   153        8.0000     Cuts: 117     4007     --- 
      0     0      160.7375   153        8.0000     Cuts: 212     4537     --- 
      0     0      160.6951   153        8.0000     Cuts: 150     4780     --- 
      0     0      160.6813   153        8.0000     Cuts: 155     5002     --- 
*     0+    0                           14.0000      160.6813              --- 
      0     2      160.6813   185       14.0000      160.6809     5002     --- 
Elapsed time = 0.48 sec. (543.08 ticks, tree = 0.01 MB, solutions = 2)
     40    42      138.4848    98       14.0000      160.2397    11308     --- 
*   138   118      integral     0       88.0000      160.2397    15870   82.09%
    148   126      158.8218   131       88.0000      160.2397    18137   82.09%
*   273   229      integral     0      106.0000      160.2397    25680   51.17%
    276   231      159.8409   166      106.0000      160.1935    26602   51.13%
    433   386      146.4808   126      106.0000      160.0753    33468   51.01%

Performing restart 1

Repeating presolve.
Tried aggregator 1 time.
MIP Presolve eliminated 1 rows and 0 columns.
MIP Presolve modified 524 coefficients.
Reduced MIP has 535 rows, 731 columns, and 2474 nonzeros.
Reduced MIP has 659 binaries, 45 generals, 0 SOSs, and 0 indicators.
Presolve time = 0.00 sec. (2.46 ticks)
Tried aggregator 1 time.
Reduced MIP has 535 rows, 731 columns, and 2474 nonzeros.
Reduced MIP has 659 binaries, 45 generals, 0 SOSs, and 0 indicators.
Presolve time = 0.00 sec. (2.02 ticks)
Represolve time = 0.02 sec. (12.92 ticks)
    481     0      145.5423   223      106.0000     Cuts: 233    36670   37.30%
    481     0      139.2935   223      106.0000     Cuts: 221    37085   31.41%
    481     0      137.1578   223      106.0000     Cuts: 192    37592   29.39%
    481     0      134.5944   223      106.0000     Cuts: 187    38206   26.98%
    481     0      133.7277   223      106.0000     Cuts: 127    38435   26.16%
    481     0      132.8876   223      106.0000     Cuts: 127    38674   25.37%
    481     0      132.4862   223      106.0000     Cuts: 142    38928   24.99%
    481     0      132.1548   223      106.0000     Cuts: 118    39183   24.67%
    481     0      131.7408   223      106.0000     Cuts: 120    39401   24.28%
    481     0      131.6039   223      106.0000     Cuts: 120    39628   24.15%
    481     0      131.1727   223      106.0000      Cuts: 62    39832   23.75%
    481     0      130.8968   223      106.0000      Cuts: 79    39973   23.49%
    481     0      130.7818   223      106.0000      Cuts: 95    40165   23.38%
    481     0      130.7491   223      106.0000      Cuts: 91    40316   23.35%
    481     0      130.6925   223      106.0000      Cuts: 60    40414   23.29%
    481     0      130.6390   223      106.0000      Cuts: 56    40535   23.24%
    481     0      130.6304   223      106.0000      Cuts: 43    40597   23.24%
    481     0      130.4847   223      106.0000      Cuts: 46    40824   23.10%
    481     0      130.3841   223      106.0000      Cuts: 86    40894   23.00%
    481     0      130.3471   223      106.0000      Cuts: 49    40954   22.97%
    481     0      130.3043   223      106.0000      Cuts: 58    41016   22.93%
    481     0      130.2593   223      106.0000      Cuts: 20    41078   22.89%
    481     0      130.2371   223      106.0000      Cuts: 29    41119   22.87%
    481     0      130.1211   223      106.0000      Cuts: 36    41268   22.76%
    481     0      130.0654   223      106.0000      Cuts: 65    41376   22.70%
    481     0      129.9216   223      106.0000      Cuts: 40    41526   22.57%
    481     0      129.9129   223      106.0000      Cuts: 51    41579   22.56%
    481     0      129.7886   223      106.0000      Cuts: 17    41728   22.44%
    481     0      129.7509   223      106.0000      Cuts: 86    41807   22.41%
    481     0      129.7391   223      106.0000      Cuts: 33    41839   22.40%
    481     0      129.7133   223      106.0000      Cuts: 12    41892   22.37%
*   481+    0                          108.0000      129.7133            20.10%
*   481+    0                          110.0000      129.7133            17.92%
    481     2      129.7133   179      110.0000      129.7107    41892   17.92%
    486     7      127.6878   133      110.0000      129.5049    42946   17.73%
    492    13      122.2283   129      110.0000      129.5049    43701   17.73%
    509    30      126.1562   100      110.0000      129.5049    44972   17.73%
*   561+   64                          116.0000      129.5049            11.64%
    570    75      127.6529    98      116.0000      129.4189    47672   11.57%
*   601+   55                          122.0000      129.4189             6.08%
    728   137      126.8974   143      122.0000      128.0925    60216    4.99%
Elapsed time = 5.38 sec. (6408.19 ticks, tree = 0.15 MB, solutions = 8)
    878   191        cutoff            122.0000      127.2011    73830    4.26%
   1017   168      124.1949   118      122.0000      126.4436    90003    3.64%
   1177   127      124.2946   127      122.0000      125.3741   106801    2.77%

GUB cover cuts applied:  52
Clique cuts applied:  77
Cover cuts applied:  22
Implied bound cuts applied:  29
Flow cuts applied:  10
Mixed integer rounding cuts applied:  59
Zero-half cuts applied:  86
Lift and project cuts applied:  9
Gomory fractional cuts applied:  7

Root node processing (before b&c):
  Real time             =    0.48 sec. (541.34 ticks)
Sequential b&c:
  Real time             =    7.53 sec. (9075.71 ticks)
                          ------------
Total (root+branch&cut) =    8.01 sec. (9617.04 ticks)

Solution pool: 9 solutions saved.

MIP - Integer optimal solution:  Objective =  1.2200000000e+02
Solution time =    8.01 sec.  Iterations = 113926  Nodes = 1331
Deterministic time = 9617.05 ticks  (1200.96 ticks/sec)


Incumbent solution
Variable Name           Solution Value
F                           122.000000
y8                            1.000000
y9                            1.000000
y14                           1.000000
y15                           1.000000
y18                           1.000000
y23                           1.000000
y31                           1.000000
y36                           1.000000
y40                           1.000000
y50                           1.000000
y59                           1.000000
y68                           1.000000
y70                           1.000000
y83                           1.000000
y90                           1.000000
y97                           1.000000
y108                          1.000000
y116                          1.000000
y135                          1.000000
y150                          1.000000
y166                          1.000000
x42x31x1                      1.000000
x42x90x1                      1.000000
x90x15x1                      1.000000
x118x36x1                     2.000000
x138x70x1                     1.000000
x35x8x2                       1.000000
x35x150x2                     1.000000
x82x68x2                      1.000000
x98x31x2                      1.000000
x172x8x2                      1.000000
x172x9x2                      1.000000
x2x18x3                       1.000000
x82x68x3                      1.000000
x90x166x3                     1.000000
x98x90x3                      1.000000
x138x70x3                     1.000000
x161x18x3                     1.000000
x8x40x2                       1.000000
x8x83x2                       1.000000
x9x40x2                       1.000000
x18x9x3                       1.000000
x9x23x3                       1.000000
x15x14x1                      1.000000
x14x0x1                       1.000000
x166x14x3                     1.000000
x14x0x3                       1.000000
x15x135x1                     1.000000
x18x150x3                     1.000000
x36x23x1                      1.000000
x23x0x1                       1.000000
x23x0x3                       1.000000
x31x59x1                      1.000000
x31x116x2                     1.000000
x36x108x1                     1.000000
x40x0x2                       2.000000
x59x50x1                      1.000000
x50x0x1                       1.000000
x59x50x3                      1.000000
x50x0x3                       1.000000
x68x59x3                      1.000000
x68x116x2                     1.000000
x70x97x1                      1.000000
x70x97x3                      1.000000
x150x83x2                     1.000000
x83x0x2                       2.000000
x97x0x1                       1.000000
x97x0x3                       1.000000
x108x0x1                      1.000000
x150x108x3                    1.000000
x108x0x3                      1.000000
x116x0x2                      2.000000
x135x0x1                      1.000000
x166x135x3                    1.000000
x135x0x3                      1.000000
s2                            4.750000
s9                            7.530092
s14                           9.300000
s18                           6.290000
z2z18z3                       1.000000
s23                           8.830000
s49                           8.680000
s50                           9.260000
s51                           7.720000
s59                           8.131246
s68                           7.000952
s70                           7.580000
s71                           9.490000
z2z71z3                       1.000000
s90                           6.500254
s97                           8.750000
s100                          6.860000
s104                          7.114202
z2z104z3                      1.000000
s108                          8.810000
s124                          7.580000
s135                          9.240000
s136                          7.310000
s148                          8.600000
s150                          7.744557
s166                          7.900309
z2z166z3                      1.000000
s176                          6.530000
s35                           5.034105
s8                            7.777931
z35z8z2                       1.000000
s31                           6.728478
s37                           6.650000
s40                           9.050000
z35z40z2                      1.000000
s83                           8.830000
z35z83z2                      1.000000
s116                          8.310000
z35z116z2                     1.000000
z35z150z2                     1.000000
s168                          8.870000
z35z168z2                     1.000000
s42                           5.071403
s15                           7.983070
z42z15z1                      1.000000
z42z31z1                      1.000000
s36                           7.490000
z42z36z1                      1.000000
s73                           6.000000
s77                           6.000000
z42z90z1                      1.000000
s122                          8.780000
z42z122z1                     1.000000
s170                          7.810000
z42z170z1                     1.000000
s82                           5.389880
z82z8z2                       1.000000
z82z40z2                      1.000000
z82z68z2                      1.000000
z82z68z3                      1.000000
z82z71z3                      1.000000
z82z83z2                      1.000000
z82z116z2                     1.000000
z82z168z2                     1.000000
z90z15z1                      1.000000
z90z71z3                      1.000000
z90z166z3                     1.000000
s98                           5.090000
z98z8z2                       1.000000
z98z31z2                      1.000000
z98z40z2                      1.000000
z98z71z3                      1.000000
z98z83z2                      1.000000
z98z90z3                      1.000000
z98z116z2                     1.000000
z98z166z3                     1.000000
z98z168z2                     1.000000
s118                          5.752878
z118z15z1                     1.000000
z118z36z1                     1.000000
z118z122z1                    1.000000
z118z170z1                    1.000000
s138                          5.984473
z138z15z1                     1.000000
z138z36z1                     1.000000
z138z70z1                     1.000000
z138z70z3                     1.000000
z138z71z3                     1.000000
z138z122z1                    1.000000
z138z170z1                    1.000000
s161                          4.493820
z161z18z3                     1.000000
z161z71z3                     1.000000
z161z104z3                    1.000000
z161z166z3                    1.000000
s172                          5.853344
z172z8z2                      1.000000
z172z9z2                      1.000000
z172z40z2                     1.000000
z172z83z2                     1.000000
z172z116z2                    1.000000
z172z168z2                    1.000000
z8z40z2                       1.000000
z8z83z2                       1.000000
z9z23z3                       1.000000
z9z40z2                       1.000000
z15z14z1                      1.000000
z15z135z1                     1.000000
z18z9z3                       1.000000
z18z71z3                      1.000000
z18z150z3                     1.000000
z31z40z2                      1.000000
z31z59z1                      1.000000
z31z83z2                      1.000000
z31z116z2                     1.000000
z31z168z2                     1.000000
z36z23z1                      1.000000
z36z108z1                     1.000000
z37z40z2                      1.000000
z59z50z1                      1.000000
z59z50z3                      1.000000
z68z59z3                      1.000000
z68z116z2                     1.000000
z70z97z1                      1.000000
z70z97z3                      1.000000
s84                           6.000000
z100z71z3                     1.000000
z104z71z3                     1.000000
z136z40z2                     1.000000
z136z71z3                     1.000000
z136z168z2                    1.000000
z150z83z2                     1.000000
z150z108z3                    1.000000
z166z14z3                     1.000000
z166z71z3                     1.000000
z166z135z3                    1.000000
s169                          6.000000
z176z71z3                     1.000000
All other variables in the range 1-1558 are 0.
